proyfinal/src/viki/013/andrea/andrea-localstore/experimentInOfficeAgust.take6/worker_5/4cf0f1c6-db16-4dda-9bee-56e9d72a8aea.als.cnf.out
Reading from standard input... Use '--help' for help.
============================[ Problem Statistics ]=============================
|                                                                             |
|  Number of variables:         87638                                         |
|  Number of clauses:          161767                                         |
|  Parse time:                   0.04 s                                       |
|                                                                             |
============================[ Search Statistics ]==============================
| Conflicts |          ORIGINAL         |          LEARNT          | Progress |
|           |    Vars  Clauses Literals |    Limit  Clauses Lit/Cl |          |
===============================================================================
|       100 |   65086   115103   286951 |    42204      100     65 | 25.733 % |
|       250 |   60182    99154   247509 |    46424      245     44 | 31.329 % |
|       475 |   60100    99063   247262 |    51067      468     36 | 31.422 % |
|       812 |   60099    98840   246746 |    56174      803     39 | 31.424 % |
|      1318 |   60099    98840   246746 |    61791     1309     50 | 31.424 % |
|      2077 |   60099    98840   246746 |    67970     2068     59 | 31.424 % |
|      3216 |   59768    98504   245910 |    74767     3199     57 | 31.801 % |
|      4924 |   59738    97292   243083 |    82244     4882     56 | 31.836 % |
|      7486 |   59288    95591   239019 |    90468     7021     65 | 32.349 % |
|     11330 |   58887    94171   235627 |    99515    10795     66 | 32.807 % |
|     17096 |   58770    93699   234516 |   109467    15692     65 | 32.940 % |
===============================================================================
restarts              : 83
conflicts             : 23057          (7839 /sec)
decisions             : 96190          (0.00 % random) (32703 /sec)
propagations          : 33062807       (11240794 /sec)
conflict literals     : 1506895        (43.40 % deleted)
Memory used           : 44.28 MB
CPU time              : 2.94132 s

INDETERMINATE
